c   #vars: 116   #clauses: 522   #literals: 1404
c 
p cnf 116 522
-1 -2 0
-3 -4 0
-7 -8 0
-9 -10 0
-11 -12 0
-13 -14 0
26 27 40 -81 0
-16 -17 0
-18 -19 0
-20 -21 0
-22 -23 0
-24 -25 0
-26 -27 0
15 -30 41 42 0
-28 -29 0
-30 -31 0
57 58 103 104 0
99 100 103 104 0
-32 -33 0
-34 -35 0
-36 -37 0
-38 -39 0
11 12 -34 45 0
-41 -42 0
-43 -44 0
16 17 50 -85 0
-48 -49 0
109 110 113 -114 0
38 39 87 88 0
-51 -52 0
-53 -54 0
48 49 105 106 0
-55 -56 0
-57 -58 0
75 76 111 112 0
-59 -60 0
-61 -62 0
-63 -64 0
-65 -66 0
-67 -68 0
-69 -70 0
-71 -72 0
-73 -74 0
7 8 41 42 0
41 42 59 60 0
-75 -76 0
-77 -78 0
32 33 41 42 0
36 37 107 108 0
-79 -80 0
-81 -82 0
-83 -84 0
-85 -86 0
-87 -88 0
-89 -90 0
-91 -92 0
-93 -94 0
15 41 42 -93 0
50 -57 85 86 0
-95 -96 0
-97 -98 0
3 4 114 115 0
3 4 24 25 0
-99 -100 0
28 29 -89 102 0
-103 -104 0
9 10 85 86 0
-105 -106 0
-107 -108 0
3 4 53 54 0
3 4 71 72 0
1 2 91 92 0
-109 -110 0
-111 -112 0
16 17 -55 116 0
-16 50 85 86 0
-114 -115 0
65 66 111 112 0
-1 -22 0
-2 -23 0
1 2 105 106 0
16 17 50 -57 0
-2 -45 0
32 33 107 108 0
-1 -91 0
-2 -92 0
20 21 91 92 0
-1 -97 0
-2 -98 0
-16 38 39 116 0
-1 -105 0
-2 -106 0
57 58 87 88 0
-1 -107 0
-2 -108 0
-3 -9 0
-4 -10 0
-3 -24 0
-4 -25 0
38 39 48 49 0
-3 -46 0
-4 -47 0
91 92 107 108 0
-3 -53 0
-4 -54 0
5 6 79 80 0
-3 -71 0
-4 -72 0
48 49 114 115 0
69 70 109 110 0
-3 -114 0
-4 -115 0
-5 -22 0
-6 -23 0
7 8 18 19 0
-5 -46 0
-6 -47 0
30 31 53 54 0
51 52 111 112 0
-5 -75 0
-6 -76 0
34 35 109 110 0
-5 -79 0
-6 -80 0
13 14 109 110 0
-5 -87 0
-6 -88 0
16 17 55 56 0
-7 -9 0
-8 -10 0
26 27 43 44 0
-7 -18 0
-8 -19 0
16 17 26 27 0
-7 -41 0
-8 -42 0
16 17 83 84 0
-7 -59 0
-8 -60 0
-7 -107 0
-8 -108 0
-7 -109 0
-8 -110 0
-9 -24 0
-10 -25 0
7 8 59 60 0
-9 -38 0
-10 -39 0
28 29 89 90 0
-9 -73 0
-10 -74 0
85 86 97 98 0
-9 -75 0
-10 -76 0
-9 -85 0
-10 -86 0
30 31 59 60 0
-9 -109 0
-10 -110 0
9 10 38 39 0
50 57 58 -85 0
-12 -45 0
18 19 43 44 0
-11 -61 0
-12 -62 0
-11 -75 0
-12 -76 0
46 47 63 64 0
-11 -107 0
-12 -108 0
40 55 56 -81 0
-11 -111 0
-12 -112 0
-13 -57 0
-14 -58 0
1 2 97 98 0
-13 -65 0
-14 -66 0
-13 -85 0
-14 -86 0
24 25 67 68 0
-13 -109 0
-14 -110 0
20 21 22 23 0
26 27 40 -55 0
-15 -31 0
40 -55 81 82 0
-15 -42 0
83 84 87 88 0
-26 40 81 82 0
-15 -94 0
-16 -26 0
-17 -27 0
-34 109 110 113 0
-17 -50 0
13 14 57 58 0
-16 -55 0
-17 -56 0
5 6 22 23 0
-16 -61 0
-17 -62 0
20 21 93 94 0
-16 -83 0
-17 -84 0
-28 89 90 102 0
-17 -116 0
-18 -24 0
-19 -25 0
1 2 -34 45 0
-18 -32 0
-19 -33 0
36 37 75 76 0
-18 -43 0
-19 -44 0
32 33 109 110 0
-19 -102 0
-20 -22 0
-21 -23 0
-20 -89 0
-21 -90 0
48 49 111 112 0
-20 -91 0
-21 -92 0
38 39 91 92 0
-20 -93 0
-21 -94 0
63 64 105 106 0
-22 -53 0
-23 -54 0
-22 -65 0
-23 -66 0
18 19 24 25 0
-22 -87 0
-23 -88 0
-24 -48 0
-25 -49 0
83 84 97 98 0
-24 -67 0
-25 -68 0
-1 11 12 45 0
-27 -40 0
41 42 81 82 0
-26 -43 0
-27 -44 0
41 42 51 52 0
69 70 114 115 0
28 29 43 44 0
-26 -99 0
-27 -100 0
-109 113 114 115 0
-28 -43 0
-29 -44 0
18 19 32 33 0
-28 -51 0
-29 -52 0
-28 -79 0
-29 -80 0
73 74 111 112 0
-28 -89 0
-29 -90 0
7 8 109 110 0
-29 -102 0
1 2 -11 45 0
-30 -53 0
-31 -54 0
-34 113 114 115 0
101 -105 107 108 0
59 60 61 62 0
-30 -59 0
-31 -60 0
24 25 48 49 0
63 64 101 -105 0
-30 -77 0
-31 -78 0
57 58 91 92 0
13 14 85 86 0
-30 -107 0
-31 -108 0
-5 -6 0
15 30 31 -93 0
-46 -47 0
-32 -41 0
-33 -42 0
28 29 51 52 0
-32 -107 0
-33 -108 0
51 52 67 68 0
-32 -109 0
-33 -110 0
1 2 22 23 0
-16 50 57 58 0
-35 -45 0
87 88 109 110 0
-34 -79 0
-35 -80 0
38 39 -55 116 0
-34 -109 0
-35 -110 0
13 14 65 66 0
16 17 -38 116 0
-35 -113 0
-36 -48 0
-37 -49 0
5 6 46 47 0
-36 -75 0
-37 -76 0
-36 -103 0
-37 -104 0
11 12 107 108 0
-36 -107 0
-37 -108 0
7 8 9 10 0
-38 -48 0
-39 -49 0
81 82 105 106 0
-38 -87 0
-39 -88 0
9 10 73 74 0
-38 -91 0
-39 -92 0
-38 -97 0
-39 -98 0
75 76 95 96 0
-39 -116 0
34 35 79 80 0
-11 34 35 45 0
-40 -56 0
67 68 87 88 0
-1 34 35 45 0
-40 -82 0
-41 -51 0
-42 -52 0
16 17 61 62 0
-41 -59 0
-42 -60 0
1 2 107 108 0
-41 -71 0
-42 -72 0
20 21 89 90 0
-41 -73 0
-42 -74 0
-41 -81 0
-42 -82 0
36 37 48 49 0
-43 -111 0
-44 -112 0
22 23 65 66 0
-46 -48 0
-47 -49 0
46 47 71 72 0
-46 -63 0
-47 -64 0
5 6 75 76 0
-46 -65 0
-47 -66 0
5 6 87 88 0
-46 -71 0
-47 -72 0
9 10 75 76 0
-46 -77 0
-47 -78 0
65 66 93 94 0
-48 -105 0
-49 -106 0
65 66 81 82 0
-48 -111 0
-49 -112 0
9 10 24 25 0
-48 -114 0
-49 -115 0
-50 -58 0
-50 -86 0
89 90 111 112 0
-51 -67 0
-52 -68 0
46 47 65 66 0
15 -41 93 94 0
55 56 77 78 0
-51 -111 0
-52 -112 0
43 44 111 112 0
-53 -65 0
-54 -66 0
53 54 65 66 0
30 31 77 78 0
-55 -69 0
-56 -70 0
-55 -77 0
-56 -78 0
73 74 87 88 0
-56 -116 0
63 64 71 72 0
-57 -87 0
-58 -88 0
3 4 9 10 0
-57 -91 0
-58 -92 0
15 30 31 -41 0
-57 -103 0
-58 -104 0
61 62 89 90 0
-59 -61 0
-60 -62 0
11 12 61 62 0
-59 -91 0
-60 -92 0
61 62 77 78 0
-59 -105 0
-60 -106 0
3 4 46 47 0
-61 -77 0
-62 -78 0
61 62 79 80 0
-61 -79 0
-62 -80 0
63 64 99 100 0
-61 -89 0
-62 -90 0
41 42 71 72 0
-63 -71 0
-64 -72 0
-63 -99 0
-64 -100 0
-18 89 90 102 0
-18 28 29 102 0
-64 -101 0
46 47 77 78 0
-63 -105 0
-64 -106 0
-65 -81 0
-66 -82 0
93 94 95 96 0
-65 -93 0
-66 -94 0
11 12 75 76 0
-65 -111 0
-66 -112 0
-67 -85 0
-68 -86 0
97 98 103 104 0
-67 -87 0
-68 -88 0
59 60 105 106 0
-63 101 105 106 0
79 80 105 106 0
22 23 87 88 0
-69 -95 0
-70 -96 0
46 47 48 49 0
-69 -109 0
-70 -110 0
-69 -114 0
-70 -115 0
-73 -87 0
-74 -88 0
-73 -111 0
-74 -112 0
79 80 95 96 0
-73 -114 0
-74 -115 0
-75 -95 0
-76 -96 0
34 35 113 -114 0
67 68 85 86 0
-75 -111 0
-76 -112 0
11 12 111 112 0
9 10 109 110 0
-79 -95 0
-80 -96 0
59 60 91 92 0
-79 -105 0
-80 -106 0
7 8 107 108 0
-81 -105 0
-82 -106 0
-83 -87 0
-84 -88 0
28 29 79 80 0
-83 -97 0
-84 -98 0
-83 -99 0
-84 -100 0
-85 -97 0
-86 -98 0
30 31 107 108 0
-87 -109 0
-88 -110 0
26 27 99 100 0
-90 -102 0
83 84 99 100 0
-89 -111 0
-90 -112 0
38 39 97 98 0
-91 -107 0
-92 -108 0
69 70 95 96 0
-93 -95 0
-94 -96 0
-63 101 107 108 0
73 74 114 115 0
-97 -103 0
-98 -104 0
36 37 103 104 0
101 105 106 -107 0
-99 -103 0
-100 -104 0
63 64 101 -107 0
34 35 -109 113 0
18 19 -89 102 0
-101 -106 0
18 19 -28 102 0
-101 -108 0
55 56 69 70 0
41 42 73 74 0
15 -30 93 94 0
-26 40 55 56 0
-38 55 56 116 0
-110 -113 0
22 23 53 54 0
-16 55 56 116 0
-113 -115 0
